Traveling Salesman Problem/TSP_generados/Aleatorio1620391022_13.tsp
NAME: Aleatorio1620391022_13.tsp
COMMENT: Randomly generated scenario
TYPE: TSP
DIMENSION: 13
EDGE_WEIGHT_TYPE: ATT
NODE_COORD_SECTION
1 6.87 32.78
2 10.65 22.47
3 49.01 7.04
4 10.09 4.81
5 18.37 5.38
6 24.61 18.22
7 20.16 27.95
8 0.4 40.81
9 28.52 19.49
10 33.65 27.99
11 40.26 16.17
12 8.44 20.66
13 39.98 1.62
