Traveling Salesman Problem/TSP_generados/Aleatorio1620391022_13.opt.tour
NAME: Aleatorio1620391022_13.opt.tour
COMMENT: Optimal solution for Aleatorio1620391022_13 (155.35486782189372)
TYPE: TOUR
DIMENSION: 13
TOUR_SECTION
1 2 12 4 5 13 3 11 10 9 6 7 8
-1
EOF
